p tdp 40 39
1 40
2 11
2 30
2 32
3 13
3 25
3 30
4 21
4 23
4 27
5 19
5 22
5 26
6 12
6 32
6 38
7 31
8 18
8 31
8 36
9 40
10 13
11 18
13 37
14 19
14 28
14 33
15 38
16 35
17 25
18 27
19 30
20 35
24 36
25 34
27 35
29 31
32 40
36 39
